c description: Graph pigeonhole principle formula on fast_gnp_random_graph(10,25,0.9)
c generator: CNFgen (0.9.0)
c copyright: (C) 2012-2020 Massimo Lauria <massimo.lauria@uniroma1.it>
c url: https://massimolauria.net/cnfgen
c
p cnf 225 917
1 2 3 4 5 6 7 8 9 10 11 12 13 14 15 16 17 18 19 20 21 22 23 0
24 25 26 27 28 29 30 31 32 33 34 35 36 37 38 39 40 41 42 43 44 45 46 47 0
48 49 50 51 52 53 54 55 56 57 58 59 60 61 62 63 64 65 66 67 68 69 70 71 72 0
73 74 75 76 77 78 79 80 81 82 83 84 85 86 87 88 89 90 91 92 0
93 94 95 96 97 98 99 100 101 102 103 104 105 106 107 108 109 110 111 112 113 114 0
115 116 117 118 119 120 121 122 123 124 125 126 127 128 129 130 131 132 133 134 135 0
136 137 138 139 140 141 142 143 144 145 146 147 148 149 150 151 152 153 154 155 156 0
157 158 159 160 161 162 163 164 165 166 167 168 169 170 171 172 173 174 175 176 177 178 0
179 180 181 182 183 184 185 186 187 188 189 190 191 192 193 194 195 196 197 198 199 200 0
201 202 203 204 205 206 207 208 209 210 211 212 213 214 215 216 217 218 219 220 221 222 223 224 225 0
-1 -24 0
-1 -48 0
-1 -93 0
-1 -115 0
-1 -136 0
-1 -157 0
-1 -179 0
-1 -201 0
-24 -48 0
-24 -93 0
-24 -115 0
-24 -136 0
-24 -157 0
-24 -179 0
-24 -201 0
-48 -93 0
-48 -115 0
-48 -136 0
-48 -157 0
-48 -179 0
-48 -201 0
-93 -115 0
-93 -136 0
-93 -157 0
-93 -179 0
-93 -201 0
-115 -136 0
-115 -157 0
-115 -179 0
-115 -201 0
-136 -157 0
-136 -179 0
-136 -201 0
-157 -179 0
-157 -201 0
-179 -201 0
-2 -25 0
-2 -49 0
-2 -73 0
-2 -94 0
-2 -137 0
-2 -158 0
-2 -180 0
-2 -202 0
-25 -49 0
-25 -73 0
-25 -94 0
-25 -137 0
-25 -158 0
-25 -180 0
-25 -202 0
-49 -73 0
-49 -94 0
-49 -137 0
-49 -158 0
-49 -180 0
-49 -202 0
-73 -94 0
-73 -137 0
-73 -158 0
-73 -180 0
-73 -202 0
-94 -137 0
-94 -158 0
-94 -180 0
-94 -202 0
-137 -158 0
-137 -180 0
-137 -202 0
-158 -180 0
-158 -202 0
-180 -202 0
-3 -26 0
-3 -50 0
-3 -95 0
-3 -159 0
-3 -181 0
-3 -203 0
-26 -50 0
-26 -95 0
-26 -159 0
-26 -181 0
-26 -203 0
-50 -95 0
-50 -159 0
-50 -181 0
-50 -203 0
-95 -159 0
-95 -181 0
-95 -203 0
-159 -181 0
-159 -203 0
-181 -203 0
-4 -27 0
-4 -51 0
-4 -74 0
-4 -96 0
-4 -116 0
-4 -138 0
-4 -160 0
-4 -182 0
-4 -204 0
-27 -51 0
-27 -74 0
-27 -96 0
-27 -116 0
-27 -138 0
-27 -160 0
-27 -182 0
-27 -204 0
-51 -74 0
-51 -96 0
-51 -116 0
-51 -138 0
-51 -160 0
-51 -182 0
-51 -204 0
-74 -96 0
-74 -116 0
-74 -138 0
-74 -160 0
-74 -182 0
-74 -204 0
-96 -116 0
-96 -138 0
-96 -160 0
-96 -182 0
-96 -204 0
-116 -138 0
-116 -160 0
-116 -182 0
-116 -204 0
-138 -160 0
-138 -182 0
-138 -204 0
-160 -182 0
-160 -204 0
-182 -204 0
-5 -28 0
-5 -52 0
-5 -97 0
-5 -117 0
-5 -139 0
-5 -161 0
-5 -205 0
-28 -52 0
-28 -97 0
-28 -117 0
-28 -139 0
-28 -161 0
-28 -205 0
-52 -97 0
-52 -117 0
-52 -139 0
-52 -161 0
-52 -205 0
-97 -117 0
-97 -139 0
-97 -161 0
-97 -205 0
-117 -139 0
-117 -161 0
-117 -205 0
-139 -161 0
-139 -205 0
-161 -205 0
-6 -29 0
-6 -53 0
-6 -75 0
-6 -98 0
-6 -118 0
-6 -162 0
-6 -183 0
-6 -206 0
-29 -53 0
-29 -75 0
-29 -98 0
-29 -118 0
-29 -162 0
-29 -183 0
-29 -206 0
-53 -75 0
-53 -98 0
-53 -118 0
-53 -162 0
-53 -183 0
-53 -206 0
-75 -98 0
-75 -118 0
-75 -162 0
-75 -183 0
-75 -206 0
-98 -118 0
-98 -162 0
-98 -183 0
-98 -206 0
-118 -162 0
-118 -183 0
-118 -206 0
-162 -183 0
-162 -206 0
-183 -206 0
-7 -30 0
-7 -54 0
-7 -76 0
-7 -99 0
-7 -119 0
-7 -140 0
-7 -163 0
-7 -184 0
-7 -207 0
-30 -54 0
-30 -76 0
-30 -99 0
-30 -119 0
-30 -140 0
-30 -163 0
-30 -184 0
-30 -207 0
-54 -76 0
-54 -99 0
-54 -119 0
-54 -140 0
-54 -163 0
-54 -184 0
-54 -207 0
-76 -99 0
-76 -119 0
-76 -140 0
-76 -163 0
-76 -184 0
-76 -207 0
-99 -119 0
-99 -140 0
-99 -163 0
-99 -184 0
-99 -207 0
-119 -140 0
-119 -163 0
-119 -184 0
-119 -207 0
-140 -163 0
-140 -184 0
-140 -207 0
-163 -184 0
-163 -207 0
-184 -207 0
-8 -31 0
-8 -55 0
-8 -77 0
-8 -100 0
-8 -120 0
-8 -141 0
-8 -164 0
-8 -185 0
-8 -208 0
-31 -55 0
-31 -77 0
-31 -100 0
-31 -120 0
-31 -141 0
-31 -164 0
-31 -185 0
-31 -208 0
-55 -77 0
-55 -100 0
-55 -120 0
-55 -141 0
-55 -164 0
-55 -185 0
-55 -208 0
-77 -100 0
-77 -120 0
-77 -141 0
-77 -164 0
-77 -185 0
-77 -208 0
-100 -120 0
-100 -141 0
-100 -164 0
-100 -185 0
-100 -208 0
-120 -141 0
-120 -164 0
-120 -185 0
-120 -208 0
-141 -164 0
-141 -185 0
-141 -208 0
-164 -185 0
-164 -208 0
-185 -208 0
-9 -32 0
-9 -56 0
-9 -78 0
-9 -101 0
-9 -121 0
-9 -165 0
-9 -186 0
-9 -209 0
-32 -56 0
-32 -78 0
-32 -101 0
-32 -121 0
-32 -165 0
-32 -186 0
-32 -209 0
-56 -78 0
-56 -101 0
-56 -121 0
-56 -165 0
-56 -186 0
-56 -209 0
-78 -101 0
-78 -121 0
-78 -165 0
-78 -186 0
-78 -209 0
-101 -121 0
-101 -165 0
-101 -186 0
-101 -209 0
-121 -165 0
-121 -186 0
-121 -209 0
-165 -186 0
-165 -209 0
-186 -209 0
-33 -57 0
-33 -79 0
-33 -102 0
-33 -122 0
-33 -142 0
-33 -166 0
-33 -187 0
-33 -210 0
-57 -79 0
-57 -102 0
-57 -122 0
-57 -142 0
-57 -166 0
-57 -187 0
-57 -210 0
-79 -102 0
-79 -122 0
-79 -142 0
-79 -166 0
-79 -187 0
-79 -210 0
-102 -122 0
-102 -142 0
-102 -166 0
-102 -187 0
-102 -210 0
-122 -142 0
-122 -166 0
-122 -187 0
-122 -210 0
-142 -166 0
-142 -187 0
-142 -210 0
-166 -187 0
-166 -210 0
-187 -210 0
-10 -34 0
-10 -58 0
-10 -80 0
-10 -103 0
-10 -123 0
-10 -143 0
-10 -167 0
-10 -211 0
-34 -58 0
-34 -80 0
-34 -103 0
-34 -123 0
-34 -143 0
-34 -167 0
-34 -211 0
-58 -80 0
-58 -103 0
-58 -123 0
-58 -143 0
-58 -167 0
-58 -211 0
-80 -103 0
-80 -123 0
-80 -143 0
-80 -167 0
-80 -211 0
-103 -123 0
-103 -143 0
-103 -167 0
-103 -211 0
-123 -143 0
-123 -167 0
-123 -211 0
-143 -167 0
-143 -211 0
-167 -211 0
-11 -35 0
-11 -59 0
-11 -81 0
-11 -104 0
-11 -124 0
-11 -144 0
-11 -188 0
-11 -212 0
-35 -59 0
-35 -81 0
-35 -104 0
-35 -124 0
-35 -144 0
-35 -188 0
-35 -212 0
-59 -81 0
-59 -104 0
-59 -124 0
-59 -144 0
-59 -188 0
-59 -212 0
-81 -104 0
-81 -124 0
-81 -144 0
-81 -188 0
-81 -212 0
-104 -124 0
-104 -144 0
-104 -188 0
-104 -212 0
-124 -144 0
-124 -188 0
-124 -212 0
-144 -188 0
-144 -212 0
-188 -212 0
-12 -36 0
-12 -60 0
-12 -82 0
-12 -125 0
-12 -145 0
-12 -168 0
-12 -189 0
-12 -213 0
-36 -60 0
-36 -82 0
-36 -125 0
-36 -145 0
-36 -168 0
-36 -189 0
-36 -213 0
-60 -82 0
-60 -125 0
-60 -145 0
-60 -168 0
-60 -189 0
-60 -213 0
-82 -125 0
-82 -145 0
-82 -168 0
-82 -189 0
-82 -213 0
-125 -145 0
-125 -168 0
-125 -189 0
-125 -213 0
-145 -168 0
-145 -189 0
-145 -213 0
-168 -189 0
-168 -213 0
-189 -213 0
-13 -37 0
-13 -61 0
-13 -105 0
-13 -126 0
-13 -146 0
-13 -169 0
-13 -190 0
-13 -214 0
-37 -61 0
-37 -105 0
-37 -126 0
-37 -146 0
-37 -169 0
-37 -190 0
-37 -214 0
-61 -105 0
-61 -126 0
-61 -146 0
-61 -169 0
-61 -190 0
-61 -214 0
-105 -126 0
-105 -146 0
-105 -169 0
-105 -190 0
-105 -214 0
-126 -146 0
-126 -169 0
-126 -190 0
-126 -214 0
-146 -169 0
-146 -190 0
-146 -214 0
-169 -190 0
-169 -214 0
-190 -214 0
-14 -38 0
-14 -62 0
-14 -83 0
-14 -127 0
-14 -147 0
-14 -170 0
-14 -191 0
-14 -215 0
-38 -62 0
-38 -83 0
-38 -127 0
-38 -147 0
-38 -170 0
-38 -191 0
-38 -215 0
-62 -83 0
-62 -127 0
-62 -147 0
-62 -170 0
-62 -191 0
-62 -215 0
-83 -127 0
-83 -147 0
-83 -170 0
-83 -191 0
-83 -215 0
-127 -147 0
-127 -170 0
-127 -191 0
-127 -215 0
-147 -170 0
-147 -191 0
-147 -215 0
-170 -191 0
-170 -215 0
-191 -215 0
-15 -39 0
-15 -63 0
-15 -106 0
-15 -128 0
-15 -148 0
-15 -192 0
-15 -216 0
-39 -63 0
-39 -106 0
-39 -128 0
-39 -148 0
-39 -192 0
-39 -216 0
-63 -106 0
-63 -128 0
-63 -148 0
-63 -192 0
-63 -216 0
-106 -128 0
-106 -148 0
-106 -192 0
-106 -216 0
-128 -148 0
-128 -192 0
-128 -216 0
-148 -192 0
-148 -216 0
-192 -216 0
-16 -40 0
-16 -64 0
-16 -84 0
-16 -107 0
-16 -129 0
-16 -149 0
-16 -171 0
-16 -193 0
-16 -217 0
-40 -64 0
-40 -84 0
-40 -107 0
-40 -129 0
-40 -149 0
-40 -171 0
-40 -193 0
-40 -217 0
-64 -84 0
-64 -107 0
-64 -129 0
-64 -149 0
-64 -171 0
-64 -193 0
-64 -217 0
-84 -107 0
-84 -129 0
-84 -149 0
-84 -171 0
-84 -193 0
-84 -217 0
-107 -129 0
-107 -149 0
-107 -171 0
-107 -193 0
-107 -217 0
-129 -149 0
-129 -171 0
-129 -193 0
-129 -217 0
-149 -171 0
-149 -193 0
-149 -217 0
-171 -193 0
-171 -217 0
-193 -217 0
-17 -41 0
-17 -65 0
-17 -85 0
-17 -108 0
-17 -150 0
-17 -172 0
-17 -194 0
-17 -218 0
-41 -65 0
-41 -85 0
-41 -108 0
-41 -150 0
-41 -172 0
-41 -194 0
-41 -218 0
-65 -85 0
-65 -108 0
-65 -150 0
-65 -172 0
-65 -194 0
-65 -218 0
-85 -108 0
-85 -150 0
-85 -172 0
-85 -194 0
-85 -218 0
-108 -150 0
-108 -172 0
-108 -194 0
-108 -218 0
-150 -172 0
-150 -194 0
-150 -218 0
-172 -194 0
-172 -218 0
-194 -218 0
-18 -42 0
-18 -66 0
-18 -86 0
-18 -109 0
-18 -130 0
-18 -151 0
-18 -173 0
-18 -195 0
-18 -219 0
-42 -66 0
-42 -86 0
-42 -109 0
-42 -130 0
-42 -151 0
-42 -173 0
-42 -195 0
-42 -219 0
-66 -86 0
-66 -109 0
-66 -130 0
-66 -151 0
-66 -173 0
-66 -195 0
-66 -219 0
-86 -109 0
-86 -130 0
-86 -151 0
-86 -173 0
-86 -195 0
-86 -219 0
-109 -130 0
-109 -151 0
-109 -173 0
-109 -195 0
-109 -219 0
-130 -151 0
-130 -173 0
-130 -195 0
-130 -219 0
-151 -173 0
-151 -195 0
-151 -219 0
-173 -195 0
-173 -219 0
-195 -219 0
-19 -67 0
-19 -87 0
-19 -110 0
-19 -131 0
-19 -152 0
-19 -174 0
-19 -196 0
-19 -220 0
-67 -87 0
-67 -110 0
-67 -131 0
-67 -152 0
-67 -174 0
-67 -196 0
-67 -220 0
-87 -110 0
-87 -131 0
-87 -152 0
-87 -174 0
-87 -196 0
-87 -220 0
-110 -131 0
-110 -152 0
-110 -174 0
-110 -196 0
-110 -220 0
-131 -152 0
-131 -174 0
-131 -196 0
-131 -220 0
-152 -174 0
-152 -196 0
-152 -220 0
-174 -196 0
-174 -220 0
-196 -220 0
-20 -43 0
-20 -68 0
-20 -88 0
-20 -111 0
-20 -132 0
-20 -175 0
-20 -221 0
-43 -68 0
-43 -88 0
-43 -111 0
-43 -132 0
-43 -175 0
-43 -221 0
-68 -88 0
-68 -111 0
-68 -132 0
-68 -175 0
-68 -221 0
-88 -111 0
-88 -132 0
-88 -175 0
-88 -221 0
-111 -132 0
-111 -175 0
-111 -221 0
-132 -175 0
-132 -221 0
-175 -221 0
-21 -44 0
-21 -69 0
-21 -89 0
-21 -133 0
-21 -153 0
-21 -197 0
-21 -222 0
-44 -69 0
-44 -89 0
-44 -133 0
-44 -153 0
-44 -197 0
-44 -222 0
-69 -89 0
-69 -133 0
-69 -153 0
-69 -197 0
-69 -222 0
-89 -133 0
-89 -153 0
-89 -197 0
-89 -222 0
-133 -153 0
-133 -197 0
-133 -222 0
-153 -197 0
-153 -222 0
-197 -222 0
-22 -45 0
-22 -70 0
-22 -90 0
-22 -112 0
-22 -154 0
-22 -176 0
-22 -198 0
-22 -223 0
-45 -70 0
-45 -90 0
-45 -112 0
-45 -154 0
-45 -176 0
-45 -198 0
-45 -223 0
-70 -90 0
-70 -112 0
-70 -154 0
-70 -176 0
-70 -198 0
-70 -223 0
-90 -112 0
-90 -154 0
-90 -176 0
-90 -198 0
-90 -223 0
-112 -154 0
-112 -176 0
-112 -198 0
-112 -223 0
-154 -176 0
-154 -198 0
-154 -223 0
-176 -198 0
-176 -223 0
-198 -223 0
-23 -46 0
-23 -71 0
-23 -91 0
-23 -113 0
-23 -134 0
-23 -155 0
-23 -177 0
-23 -199 0
-23 -224 0
-46 -71 0
-46 -91 0
-46 -113 0
-46 -134 0
-46 -155 0
-46 -177 0
-46 -199 0
-46 -224 0
-71 -91 0
-71 -113 0
-71 -134 0
-71 -155 0
-71 -177 0
-71 -199 0
-71 -224 0
-91 -113 0
-91 -134 0
-91 -155 0
-91 -177 0
-91 -199 0
-91 -224 0
-113 -134 0
-113 -155 0
-113 -177 0
-113 -199 0
-113 -224 0
-134 -155 0
-134 -177 0
-134 -199 0
-134 -224 0
-155 -177 0
-155 -199 0
-155 -224 0
-177 -199 0
-177 -224 0
-199 -224 0
-47 -72 0
-47 -92 0
-47 -114 0
-47 -135 0
-47 -156 0
-47 -178 0
-47 -200 0
-47 -225 0
-72 -92 0
-72 -114 0
-72 -135 0
-72 -156 0
-72 -178 0
-72 -200 0
-72 -225 0
-92 -114 0
-92 -135 0
-92 -156 0
-92 -178 0
-92 -200 0
-92 -225 0
-114 -135 0
-114 -156 0
-114 -178 0
-114 -200 0
-114 -225 0
-135 -156 0
-135 -178 0
-135 -200 0
-135 -225 0
-156 -178 0
-156 -200 0
-156 -225 0
-178 -200 0
-178 -225 0
-200 -225 0